N=6;

puzzle = array2d(1..N*N, 1..4,[
  1,5,5,1,
  4,3,3,6,
  0,8,6,4,
  4,4,5,8,
  7,9,3,3,
  1,0,9,4,
  0,0,2,3,
  0,2,8,4,
  7,2,3,6,
  1,9,3,4,
  7,2,3,3,
  9,7,9,9,
  9,7,1,8,
  3,3,9,8,
  8,3,4,2,
  4,9,2,2,
  5,0,7,7,
  7,2,0,9,
  2,1,6,2,
  0,0,6,9,
  9,3,6,0,
  8,0,8,9,
  9,1,3,3,
  5,4,4,8,
  0,9,8,0,
  2,4,9,7,
  2,9,8,5,
  9,5,1,4,
  9,2,6,5,
  8,2,5,4,
  2,5,4,6,
  9,7,4,8,
  8,0,7,1,
  3,9,4,4,
  3,7,0,8,
  0,1,0,3]);